NAME : global
TYPE : ATSP
DIMENSION : 5
EDGE_WEIGHT_TYPE : EXPLICIT
EDGE_WEIGHT_FORMAT : FULL_MATRIX
EDGE_WEIGHT_SECTION
0 2438 3526 4241 4289 
0 0 4348 6093 6063 
0 4348 0 2952 2789 
0 6093 2952 0 2625 
0 6063 2789 2625 0 
EOF